35865.73 0
187 122 121 70 3 92 43 59 52 123 117 4 176 2 82 39 5 58 149 63 76 42 154 90 53 62 153 15 151 157 183 106 156 193 79 75 126 160 134 71 56 98 30 77 173 64 159 85 95 142 188 84 17 113 24 19 141 8 101 54 112 25 86 162 130 147 94 150 55 181 163 132 46 114 11 27 20 9 177 116 91 140 47 143 99 191 50 118 36 195 18 135 144 61 34 29 1 115 81 182 105 103 186 13 67 32 165 44 133 68 171 136 83 40 164 23 26 87 178 12 180 78 146 72 38 14 119 179 137 51 7 65 37 185 148 33 80 129 174 49 0 199 155 125 168 161 31 104 96 166 139 89 16 93 10 167 109 22 41 184 21 172 152 69 48 169 97 138 88 120 189 100 194 197 73 111 60 170 6 131 66 74 158 35 128 107 198 175 196 190 28 127 57 192 110 102 145 124 108 45